WARNING: for repeatability, setting FPU to use double precision
============================[ Problem Statistics ]=============================
|                                                                             |
|  Number of variables:           100                                         |
|  Number of clauses:             449                                         |
|  Parse time:                   0.00 s                                       |
|  Eliminated clauses:           0.00 Mb                                      |
|  Simplification time:          0.00 s                                       |
|                                                                             |
============================[ Search Statistics ]==============================
| Conflicts |          ORIGINAL         |          LEARNT          | Progress |
|           |    Vars  Clauses Literals |    Limit  Clauses Lit/Cl |          |
===============================================================================
|       100 |      95      426     1295 |      156      100      7 |  0.010 % |
===============================================================================
restarts              : 3
conflicts             : 231            (81395 /sec)
decisions             : 293            (0.00 % random) (103242 /sec)
propagations          : 5674           (1999295 /sec)
conflict literals     : 1652           (19.22 % deleted)
Memory used           : 13.00 MB
CPU time              : 0.002838 s

SATISFIABLE
